0 4 7 2 10 9 8 9 6 7
7 0 3 3 1 5 5 2 3 8
8 8 0 2 7 10 2 9 9 2
4 5 2 0 2 5 7 9 8 2
6 5 8 5 0 8 9 5 8 5
6 8 5 8 10 0 4 7 2 3
3 10 1 1 9 3 0 9 6 7
10 1 7 4 8 7 5 0 10 2
10 3 8 9 10 2 7 8 0 5
10 2 3 6 6 10 4 8 5 0
